p wcnf 116 140 141 
1 80 97 0 
1 54 -90 0 
1 -12 90 0 
1 41 -54 0 
1 -17 -78 0 
1 39 57 0 
1 -99 42 0 
1 59 -115 0 
1 -66 -85 0 
1 -22 91 0 
1 -46 -66 0 
1 8 33 0 
1 -58 48 0 
1 93 -37 0 
1 -96 -43 0 
1 -38 -28 0 
1 -36 28 0 
1 38 -40 0 
1 -104 -101 0 
1 15 -91 0 
1 95 -25 0 
1 61 16 0 
1 35 -114 0 
1 111 -80 0 
1 68 37 0 
1 -75 -49 0 
1 -12 41 0 
1 -3 -55 0 
1 -68 -85 0 
1 -30 -111 0 
1 96 36 0 
1 -82 28 0 
1 -24 -13 0 
1 108 -104 0 
1 -66 67 0 
1 75 38 0 
1 56 -95 0 
1 -110 -62 0 
1 -55 -102 0 
1 -109 113 0 
1 -69 82 0 
1 18 103 0 
1 27 36 0 
1 -29 101 0 
1 70 15 0 
1 -85 -30 0 
1 -69 63 0 
1 31 108 0 
1 -30 -57 0 
1 -22 38 0 
1 -76 -94 0 
1 83 -77 0 
1 -68 72 0 
1 -45 70 0 
1 -70 66 0 
1 94 107 0 
1 -63 -76 0 
1 111 78 0 
1 -73 48 0 
1 -58 28 0 
1 111 -67 0 
1 92 -82 0 
1 6 -96 0 
1 -62 17 0 
1 44 -61 0 
1 -95 79 0 
1 102 -38 0 
1 -69 -98 0 
1 -68 -12 0 
1 -7 -112 0 
1 32 92 0 
1 1 94 0 
1 -51 -102 0 
1 -107 42 0 
1 -1 -115 0 
1 -25 110 0 
1 42 116 0 
1 -99 -38 0 
1 95 -105 0 
1 -15 90 0 
1 -33 -67 0 
1 -57 -101 0 
1 -72 -69 0 
1 -3 59 0 
1 103 -65 0 
1 22 -18 0 
1 80 41 0 
1 48 14 0 
1 105 -23 0 
1 -82 -14 0 
1 -48 -8 0 
1 20 12 0 
1 61 39 0 
1 -49 -3 0 
1 57 -76 0 
1 65 18 0 
1 -105 113 0 
1 -74 22 0 
1 -88 24 0 
1 -62 -108 0 
1 25 42 0 
1 -55 -97 0 
1 56 22 0 
1 60 8 0 
1 -33 92 0 
1 -25 -99 0 
1 -34 -11 0 
1 -116 -104 0 
1 -80 63 0 
1 -83 -98 0 
1 -106 -16 0 
1 51 28 0 
1 -85 -81 0 
1 -36 -109 0 
1 35 -72 0 
1 -86 1 0 
1 -24 -110 0 
1 -73 42 0 
1 -78 -77 0 
1 106 -38 0 
1 -16 -37 0 
1 -67 -26 0 
1 -16 106 0 
1 32 -87 0 
1 -90 -21 0 
1 -29 -53 0 
1 3 90 0 
1 23 -102 0 
1 38 25 0 
1 86 59 0 
1 108 107 0 
1 54 87 0 
1 38 4 0 
1 -77 -15 0 
1 -69 -93 0 
1 69 -41 0 
1 -10 37 0 
1 42 -82 0 
1 -111 73 0 
1 -39 -21 0 
